
%FILE DATA:	Soccer Computational Problem for MiniZinc Models	%
%AUTHOR:	Jack Wall	%
%CONTACT:  	116397063@umail.ucc.ie			%
%LAST UPDATE:	03/03/2020, 12:12:28						%
%DESCRIPTION: 	45 games played with 27 games left				%


n=9; %number of teams

%Games to play
games=[|4,9|3,4|6,1|6,2|8,4|9,7|1,8|8,5|6,7|2,9|5,8|8,2|9,1|1,5|6,4|6,9|3,6|2,7|8,7|5,4|4,8|9,4|2,5|5,2|1,7|2,3|3,2|];

%Initial points
iPoints=[10,10,16,11,14,12,26,16,10];

%POSITION CONSTRAINTS
% [|teamID, operator, position|...]
% operators index:
%  1 for =  operator
%  2 for >  operator
%  3 for >= operator
%  4 for <  operator
%  5 for <= operator
positionConstraints=[|7,1,1|8,1,2|6,2,2|2,5,4|];